Route #1: 1 1 11 25 6 33 30 17 13 18 21 24 1 
Route #2: 1 27 28 23 3 31 19 29 22 1 
Route #3: 1 26 15 34 14 20 5 1 
Route #4: 1 16 10 7 9 12 1 
Route #5: 1 32 4 2 35 8 1 

Cost 1126.41
Time 0.2034


 * Another infos *

 Iterations: 36 Time: 0.2034 sec - 0.0034 min - 0.0001 horas
0.0000 h 0.0034 min
Problem dimension: 36
